p wcnf 1024 1792 1
1 1 0
1 2 0
1 3 0
1 4 0
1 5 0
1 6 0
1 7 0
1 8 0
1 9 0
1 10 0
1 11 0
1 12 0
1 1 1 1 1 1 1 1 1 1 1 1 0
1 1 1 1 1 1 1 1 1 1 1 1 0
1 1 1 1 1 1 1 1 1 1 1 1 0
1 1 1 1 1 1 1 1 1 1 1 1 0
1 1 1 1 1 1 1 1 1 1 1 1 0
1 1 1 1 1 1 1 1 1 1 1 1 0
1 1 1 1 1 1 1 1 1 1 1 1 0
1 1 1 1 1 1 1 1 1 1 1 1 0
1 1 1 1 1 1 1 1 1 1 1 1 0
1 1 1 1 1 1 1 1 1 1 1 1 0
1 1 1 1 1 1 1 1 1 1 1 1 0
1 1 1 1 1 1 1 1 1 1 1 1 0
1 1 1 1 1 1 1 1 1 1 1 1 0
1 1 1 1 1 1 1 1 1 1 1 1 0
1 1 1 1 1 1 1 1 1 1 1 1 0
1 1 1 1 1 1 1 1 1 1 1 1 0
1 1 1 1 1 1 1 1 1 1 1 1 0
1 1 1 1 1 1 1 1 1 1 1 1 0
1 1 1 1 1 1 1 1 1 1 1 1 0
1 1 1 1 1 1 1 1 1 1 1 1 0
1 1 1 1 1 1 1 1 1 1 1 1 0
1 1 1 1 1 1 1 1 1 1 1 1 0
1 1 1 1 1 1 1 1 1 1 1 1 0
1 1 1 1 1 1 1 1 1 1 1 1 0
1 1 1 1 1 1 1 1 1 1 1 1 0
1 1 1 1 1 1 1 1 1 1 1 1 0
1 1 1 1 1 1 1 1 1 1 1 1 0
1 1 1 1 1 1 1 1 1 1 1 1 0
1 1 1 1 1 1 1 1 1 1 1 1 0
1 1 1 1 1 1 1 1 1 1 1 1 0
1 1 1 1 1 1 1 1 1 1 1 1 0
1 1 1 1 1 1 1 1 1 1 1 1 0
1 1 1 1 1 1 1 1 1 1 1 1 0
1 1 1 1 1 1 1 1 1 1 1 1 0
1 1 1 1 1 1 1 1 1 1 1 1 0
1 1 1 1 1 1 1 1 1 1 1 1 0
1 1 1 1 1 1 1 1 1 1 1 1 0
1 1 1 1 1 1 1 1 1 1 1 1 0
1 1 1 1 1 1 1 1 1 1 1 1 0
1 1 1 1 1 1 1 1 1 1 1 1 0
1 1 1 1 1 1 1 1 1 1 1 1 0
1 1 1 1 1 1 1 1 1 1 1 1 0
1 1 1 1 1 1 1 1 1 1 1 1 0
1 1 1 1 1 1 1 1 1 1 1 1 0
1 1 1 1 1 1 1 1 1 1 1 1 0
1 1 1 1 1 1 1 1 1 1 1 1 0
1 1 1 1 1 1 1 1 1 1 1 1 0
1 1 1 1 1 1 1 1 1 1 1 1 0
1 1 1 1 1 1 1 1 1 1 1 1 0
1 1 1 1 1 1 1 1 1 1 1 1 0
1 1 1 1 1 1 1 1 1 1 1 1 0
1 1 1 1 1 1 1 1 1 1 1 1 0
1 1 1 1 1 1 1 1 1 1 1 1 0
1 1 1 1 1 1 1 1 1 1 1 1 0
1 1 1 1 1 1 1 1 1 1 1 1 0
1 1 1 1 1 1 1 1 1 1 1 1 0
1 1 1 1 1 1 1 1 1 1 1 1 0
1 1 1 1 1 1 1 1 1 1 1 1 0
1 1 1 1 1 1 1 1 1 1 1 1 0
1 1 1 1 1 1 1 1 1 1 1 1 0
1 1 1 1 1 1 1 1 1 1 1 1 0
1 1 1 1 1 1 1 1 1 1 1 1 0
1 1 1 1 1 1 1 1 1 1 1 1 0
1 1 1 1 1 1 1 1 1 1 1 1 0
1 1 1 1 1 1 1 1 1 1 1 1 0
1 1 1 1 1 1 1 1 1 1 1 1 0
1 1 1 1 1 1 1 1 1 1 1 1 0
1 1 1 1 1 1 1 1 1 1 1 1 0
1 1 1 1 1 1 1 1 1 1 1 1 0
1 1 1 1 1 1 1 1 1 1 1 1 0
1 1 1 1 1 1 1 1 1 1 1 1 0
1 1 1 1 1 1 1 1 1 1 1 1 0
1 1 1 1 1 1 1 1 1 1 1 1 0
1 1 1 1 1 1 1 1 1 1 1 1 0
1 1 1 1 1 1 1 1 1 1 1 1 0
1 1 1 1 1 1 1 1 1 1 1 1 0
1 1 1 1 1 1 1 1 1 1 1 1 0
1 1 1 1 1 1 1 1 1 1 1 1 0
1 1 1 1 1 1 1 1 1 1 1 1 0
1 1 1 1 1 1 1 1 1 1 1 1 0
1 1 1 1 1 1 1 1 1 1 1 1 0
1 1 1 1 1 1 1 1 1 1 1 1 0
1 1 1 1 1 1 1 1 1 1 1 1 0
1 1 1 1 1 1 1 1 1 1 1 1 0
1 1 1 1 0
1  0
1 4 3 1 0
1  0
1 7 6 1 0
1  0
1 9 8 2 0
1  0
1 15 14 1 0
1  0
1 17 16 2 0
1  0
1 22 21 5 0
1  0
1 35 34 1 0
1  0
1 37 36 2 0
1  0
1 42 41 5 0
1  0
1 54 53 13 0
1  0
1 83 82 1 0
1  0
1 85 84 2 0
1  0
1 90 89 5 0
1  0
1 102 101 13 0
1  0
1 130 129 33 0
1  0
1 195 194 1 0
1  0
1 197 196 2 0
1  0
1 202 201 5 0
1  0
1 214 213 13 0
1  0
1 242 241 33 0
1  0
1 306 305 81 0
1  0
1 451 450 1 0
1  0
1 453 452 2 0
1  0
1 458 457 5 0
1  0
1 470 469 13 0
1  0
1 498 497 33 0
1  0
1 562 561 81 0
1  0
1 706 705 193 0
1  0
1 11 10 3 0
1  0
1 19 18 3 0
1  0
1 24 23 6 0
1  0
1 39 38 3 0
1  0
1 44 43 6 0
1  0
1 56 55 14 0
1  0
1 87 86 3 0
1  0
1 92 91 6 0
1  0
1 104 103 14 0
1  0
1 132 131 34 0
1  0
1 199 198 3 0
1  0
1 204 203 6 0
1  0
1 216 215 14 0
1  0
1 244 243 34 0
1  0
1 308 307 82 0
1  0
1 455 454 3 0
1  0
1 460 459 6 0
1  0
1 472 471 14 0
1  0
1 500 499 34 0
1  0
1 564 563 82 0
1  0
1 708 707 194 0
1  0
1 12 10 4 0
1  0
1 20 18 4 0
1  0
1 27 26 8 0
1  0
1 40 38 4 0
1  0
1 47 46 8 0
1  0
1 59 58 16 0
1  0
1 88 86 4 0
1  0
1 95 94 8 0
1  0
1 107 106 16 0
1  0
1 135 134 36 0
1  0
1 200 198 4 0
1  0
1 207 206 8 0
1  0
1 219 218 16 0
1  0
1 247 246 36 0
1  0
1 311 310 84 0
1  0
1 456 454 4 0
1  0
1 463 462 8 0
1  0
1 475 474 16 0
1  0
1 503 502 36 0
1  0
1 567 566 84 0
1  0
1 711 710 196 0
1  0
1 30 29 10 0
1  0
1 50 49 10 0
1  0
1 62 61 18 0
1  0
1 98 97 10 0
1  0
1 110 109 18 0
1  0
1 138 137 38 0
1  0
1 210 209 10 0
1  0
1 222 221 18 0
1  0
1 250 249 38 0
1  0
1 314 313 86 0
1  0
1 466 465 10 0
1  0
1 478 477 18 0
1  0
1 506 505 38 0
1  0
1 570 569 86 0
1  0
1 714 713 198 0
1  0
1 12 11 7 0
1  0
1 25 23 7 0
1  0
1 28 26 9 0
1  0
1 45 43 7 0
1  0
1 48 46 9 0
1  0
1 66 65 21 0
1  0
1 93 91 7 0
1  0
1 96 94 9 0
1  0
1 114 113 21 0
1  0
1 142 141 41 0
1  0
1 205 203 7 0
1  0
1 208 206 9 0
1  0
1 226 225 21 0
1  0
1 254 253 41 0
1  0
1 318 317 89 0
1  0
1 461 459 7 0
1  0
1 464 462 9 0
1  0
1 482 481 21 0
1  0
1 510 509 41 0
1  0
1 574 573 89 0
1  0
1 718 717 201 0
1  0
1 31 29 11 0
1  0
1 51 49 11 0
1  0
1 69 68 23 0
1  0
1 99 97 11 0
1  0
1 117 116 23 0
1  0
1 145 144 43 0
1  0
1 211 209 11 0
1  0
1 229 228 23 0
1  0
1 257 256 43 0
1  0
1 321 320 91 0
1  0
1 467 465 11 0
1  0
1 485 484 23 0
1  0
1 513 512 43 0
1  0
1 577 576 91 0
1  0
1 721 720 203 0
1  0
1 32 29 12 0
1  0
1 52 49 12 0
1  0
1 73 72 26 0
1  0
1 100 97 12 0
1  0
1 121 120 26 0
1  0
1 149 148 46 0
1  0
1 212 209 12 0
1  0
1 233 232 26 0
1  0
1 261 260 46 0
1  0
1 325 324 94 0
1  0
1 468 465 12 0
1  0
1 489 488 26 0
1  0
1 517 516 46 0
1  0
1 581 580 94 0
1  0
1 725 724 206 0
1  0
1 77 76 29 0
1  0
1 125 124 29 0
1  0
1 153 152 49 0
1  0
1 237 236 29 0
1  0
1 265 264 49 0
1  0
1 329 328 97 0
1  0
1 493 492 29 0
1  0
1 521 520 49 0
1  0
1 585 584 97 0
1  0
1 729 728 209 0
1  0
1 20 19 15 0
1  0
1 25 24 15 0
1  0
1 28 27 17 0
1  0
1 57 55 15 0
1  0
1 60 58 17 0
1  0
1 67 65 22 0
1  0
1 105 103 15 0
1  0
1 108 106 17 0
1  0
1 115 113 22 0
1  0
1 158 157 53 0
1  0
1 217 215 15 0
1  0
1 220 218 17 0
1  0
1 227 225 22 0
1  0
1 270 269 53 0
1  0
1 334 333 101 0
1  0
1 473 471 15 0
1  0
1 476 474 17 0
1  0
1 483 481 22 0
1  0
1 526 525 53 0
1  0
1 590 589 101 0
1  0
1 734 733 213 0
1  0
1 31 30 19 0
1  0
1 63 61 19 0
1  0
1 70 68 24 0
1  0
1 111 109 19 0
1  0
1 118 116 24 0
1  0
1 161 160 55 0
1  0
1 223 221 19 0
1  0
1 230 228 24 0
1  0
1 273 272 55 0
1  0
1 337 336 103 0
1  0
1 479 477 19 0
1  0
1 486 484 24 0
1  0
1 529 528 55 0
1  0
1 593 592 103 0
1  0
1 737 736 215 0
1  0
1 32 30 20 0
1  0
1 64 61 20 0
1  0
1 74 72 27 0
1  0
1 112 109 20 0
1  0
1 122 120 27 0
1  0
1 165 164 58 0
1  0
1 224 221 20 0
1  0
1 234 232 27 0
1  0
1 277 276 58 0
1  0
1 341 340 106 0
1  0
1 480 477 20 0
1  0
1 490 488 27 0
1  0
1 533 532 58 0
1  0
1 597 596 106 0
1  0
1 741 740 218 0
1  0
1 78 76 30 0
1  0
1 126 124 30 0
1  0
1 169 168 61 0
1  0
1 238 236 30 0
1  0
1 281 280 61 0
1  0
1 345 344 109 0
1  0
1 494 492 30 0
1  0
1 537 536 61 0
1  0
1 601 600 109 0
1  0
1 745 744 221 0
1  0
1 32 31 25 0
1  0
1 71 68 25 0
1  0
1 75 72 28 0
1  0
1 119 116 25 0
1  0
1 123 120 28 0
1  0
1 174 173 65 0
1  0
1 231 228 25 0
1  0
1 235 232 28 0
1  0
1 286 285 65 0
1  0
1 350 349 113 0
1  0
1 487 484 25 0
1  0
1 491 488 28 0
1  0
1 542 541 65 0
1  0
1 606 605 113 0
1  0
1 750 749 225 0
1  0
1 79 76 31 0
1  0
1 127 124 31 0
1  0
1 178 177 68 0
1  0
1 239 236 31 0
1  0
1 290 289 68 0
1  0
1 354 353 116 0
1  0
1 495 492 31 0
1  0
1 546 545 68 0
1  0
1 610 609 116 0
1  0
1 754 753 228 0
1  0
1 80 76 32 0
1  0
1 128 124 32 0
1  0
1 183 182 72 0
1  0
1 240 236 32 0
1  0
1 295 294 72 0
1  0
1 359 358 120 0
1  0
1 496 492 32 0
1  0
1 551 550 72 0
1  0
1 615 614 120 0
1  0
1 759 758 232 0
1  0
1 188 187 76 0
1  0
1 300 299 76 0
1  0
1 364 363 124 0
1  0
1 556 555 76 0
1  0
1 620 619 124 0
1  0
1 764 763 236 0
1  0
1 40 39 35 0
1  0
1 45 44 35 0
1  0
1 48 47 37 0
1  0
1 57 56 35 0
1  0
1 60 59 37 0
1  0
1 67 66 42 0
1  0
1 133 131 35 0
1  0
1 136 134 37 0
1  0
1 143 141 42 0
1  0
1 159 157 54 0
1  0
1 245 243 35 0
1  0
1 248 246 37 0
1  0
1 255 253 42 0
1  0
1 271 269 54 0
1  0
1 370 369 129 0
1  0
1 501 499 35 0
1  0
1 504 502 37 0
1  0
1 511 509 42 0
1  0
1 527 525 54 0
1  0
1 626 625 129 0
1  0
1 770 769 241 0
1  0
1 51 50 39 0
1  0
1 63 62 39 0
1  0
1 70 69 44 0
1  0
1 139 137 39 0
1  0
1 146 144 44 0
1  0
1 162 160 56 0
1  0
1 251 249 39 0
1  0
1 258 256 44 0
1  0
1 274 272 56 0
1  0
1 373 372 131 0
1  0
1 507 505 39 0
1  0
1 514 512 44 0
1  0
1 530 528 56 0
1  0
1 629 628 131 0
1  0
1 773 772 243 0
1  0
1 52 50 40 0
1  0
1 64 62 40 0
1  0
1 74 73 47 0
1  0
1 140 137 40 0
1  0
1 150 148 47 0
1  0
1 166 164 59 0
1  0
1 252 249 40 0
1  0
1 262 260 47 0
1  0
1 278 276 59 0
1  0
1 377 376 134 0
1  0
1 508 505 40 0
1  0
1 518 516 47 0
1  0
1 534 532 59 0
1  0
1 633 632 134 0
1  0
1 777 776 246 0
1  0
1 78 77 50 0
1  0
1 154 152 50 0
1  0
1 170 168 62 0
1  0
1 266 264 50 0
1  0
1 282 280 62 0
1  0
1 381 380 137 0
1  0
1 522 520 50 0
1  0
1 538 536 62 0
1  0
1 637 636 137 0
1  0
1 781 780 249 0
1  0
1 52 51 45 0
1  0
1 71 69 45 0
1  0
1 75 73 48 0
1  0
1 147 144 45 0
1  0
1 151 148 48 0
1  0
1 175 173 66 0
1  0
1 259 256 45 0
1  0
1 263 260 48 0
1  0
1 287 285 66 0
1  0
1 386 385 141 0
1  0
1 515 512 45 0
1  0
1 519 516 48 0
1  0
1 543 541 66 0
1  0
1 642 641 141 0
1  0
1 786 785 253 0
1  0
1 79 77 51 0
1  0
1 155 152 51 0
1  0
1 179 177 69 0
1  0
1 267 264 51 0
1  0
1 291 289 69 0
1  0
1 390 389 144 0
1  0
1 523 520 51 0
1  0
1 547 545 69 0
1  0
1 646 645 144 0
1  0
1 790 789 256 0
1  0
1 80 77 52 0
1  0
1 156 152 52 0
1  0
1 184 182 73 0
1  0
1 268 264 52 0
1  0
1 296 294 73 0
1  0
1 395 394 148 0
1  0
1 524 520 52 0
1  0
1 552 550 73 0
1  0
1 651 650 148 0
1  0
1 795 794 260 0
1  0
1 189 187 77 0
1  0
1 301 299 77 0
1  0
1 400 399 152 0
1  0
1 557 555 77 0
1  0
1 656 655 152 0
1  0
1 800 799 264 0
1  0
1 64 63 57 0
1  0
1 71 70 57 0
1  0
1 75 74 60 0
1  0
1 163 160 57 0
1  0
1 167 164 60 0
1  0
1 176 173 67 0
1  0
1 275 272 57 0
1  0
1 279 276 60 0
1  0
1 288 285 67 0
1  0
1 406 405 157 0
1  0
1 531 528 57 0
1  0
1 535 532 60 0
1  0
1 544 541 67 0
1  0
1 662 661 157 0
1  0
1 806 805 269 0
1  0
1 79 78 63 0
1  0
1 171 168 63 0
1  0
1 180 177 70 0
1  0
1 283 280 63 0
1  0
1 292 289 70 0
1  0
1 410 409 160 0
1  0
1 539 536 63 0
1  0
1 548 545 70 0
1  0
1 666 665 160 0
1  0
1 810 809 272 0
1  0
1 80 78 64 0
1  0
1 172 168 64 0
1  0
1 185 182 74 0
1  0
1 284 280 64 0
1  0
1 297 294 74 0
1  0
1 415 414 164 0
1  0
1 540 536 64 0
1  0
1 553 550 74 0
1  0
1 671 670 164 0
1  0
1 815 814 276 0
1  0
1 190 187 78 0
1  0
1 302 299 78 0
1  0
1 420 419 168 0
1  0
1 558 555 78 0
1  0
1 676 675 168 0
1  0
1 820 819 280 0
1  0
1 80 79 71 0
1  0
1 181 177 71 0
1  0
1 186 182 75 0
1  0
1 293 289 71 0
1  0
1 298 294 75 0
1  0
1 426 425 173 0
1  0
1 549 545 71 0
1  0
1 554 550 75 0
1  0
1 682 681 173 0
1  0
1 826 825 285 0
1  0
1 191 187 79 0
1  0
1 303 299 79 0
1  0
1 431 430 177 0
1  0
1 559 555 79 0
1  0
1 687 686 177 0
1  0
1 831 830 289 0
1  0
1 192 187 80 0
1  0
1 304 299 80 0
1  0
1 437 436 182 0
1  0
1 560 555 80 0
1  0
1 693 692 182 0
1  0
1 837 836 294 0
1  0
1 443 442 187 0
1  0
1 699 698 187 0
1  0
1 843 842 299 0
1  0
1 88 87 83 0
1  0
1 93 92 83 0
1  0
1 96 95 85 0
1  0
1 105 104 83 0
1  0
1 108 107 85 0
1  0
1 115 114 90 0
1  0
1 133 132 83 0
1  0
1 136 135 85 0
1  0
1 143 142 90 0
1  0
1 159 158 102 0
1  0
1 309 307 83 0
1  0
1 312 310 85 0
1  0
1 319 317 90 0
1  0
1 335 333 102 0
1  0
1 371 369 130 0
1  0
1 565 563 83 0
1  0
1 568 566 85 0
1  0
1 575 573 90 0
1  0
1 591 589 102 0
1  0
1 627 625 130 0
1  0
1 850 849 305 0
1  0
1 99 98 87 0
1  0
1 111 110 87 0
1  0
1 118 117 92 0
1  0
1 139 138 87 0
1  0
1 146 145 92 0
1  0
1 162 161 104 0
1  0
1 315 313 87 0
1  0
1 322 320 92 0
1  0
1 338 336 104 0
1  0
1 374 372 132 0
1  0
1 571 569 87 0
1  0
1 578 576 92 0
1  0
1 594 592 104 0
1  0
1 630 628 132 0
1  0
1 853 852 307 0
1  0
1 100 98 88 0
1  0
1 112 110 88 0
1  0
1 122 121 95 0
1  0
1 140 138 88 0
1  0
1 150 149 95 0
1  0
1 166 165 107 0
1  0
1 316 313 88 0
1  0
1 326 324 95 0
1  0
1 342 340 107 0
1  0
1 378 376 135 0
1  0
1 572 569 88 0
1  0
1 582 580 95 0
1  0
1 598 596 107 0
1  0
1 634 632 135 0
1  0
1 857 856 310 0
1  0
1 126 125 98 0
1  0
1 154 153 98 0
1  0
1 170 169 110 0
1  0
1 330 328 98 0
1  0
1 346 344 110 0
1  0
1 382 380 138 0
1  0
1 586 584 98 0
1  0
1 602 600 110 0
1  0
1 638 636 138 0
1  0
1 861 860 313 0
1  0
1 100 99 93 0
1  0
1 119 117 93 0
1  0
1 123 121 96 0
1  0
1 147 145 93 0
1  0
1 151 149 96 0
1  0
1 175 174 114 0
1  0
1 323 320 93 0
1  0
1 327 324 96 0
1  0
1 351 349 114 0
1  0
1 387 385 142 0
1  0
1 579 576 93 0
1  0
1 583 580 96 0
1  0
1 607 605 114 0
1  0
1 643 641 142 0
1  0
1 866 865 317 0
1  0
1 127 125 99 0
1  0
1 155 153 99 0
1  0
1 179 178 117 0
1  0
1 331 328 99 0
1  0
1 355 353 117 0
1  0
1 391 389 145 0
1  0
1 587 584 99 0
1  0
1 611 609 117 0
1  0
1 647 645 145 0
1  0
1 870 869 320 0
1  0
1 128 125 100 0
1  0
1 156 153 100 0
1  0
1 184 183 121 0
1  0
1 332 328 100 0
1  0
1 360 358 121 0
1  0
1 396 394 149 0
1  0
1 588 584 100 0
1  0
1 616 614 121 0
1  0
1 652 650 149 0
1  0
1 875 874 324 0
1  0
1 189 188 125 0
1  0
1 365 363 125 0
1  0
1 401 399 153 0
1  0
1 621 619 125 0
1  0
1 657 655 153 0
1  0
1 880 879 328 0
1  0
1 112 111 105 0
1  0
1 119 118 105 0
1  0
1 123 122 108 0
1  0
1 163 161 105 0
1  0
1 167 165 108 0
1  0
1 176 174 115 0
1  0
1 339 336 105 0
1  0
1 343 340 108 0
1  0
1 352 349 115 0
1  0
1 407 405 158 0
1  0
1 595 592 105 0
1  0
1 599 596 108 0
1  0
1 608 605 115 0
1  0
1 663 661 158 0
1  0
1 886 885 333 0
1  0
1 127 126 111 0
1  0
1 171 169 111 0
1  0
1 180 178 118 0
1  0
1 347 344 111 0
1  0
1 356 353 118 0
1  0
1 411 409 161 0
1  0
1 603 600 111 0
1  0
1 612 609 118 0
1  0
1 667 665 161 0
1  0
1 890 889 336 0
1  0
1 128 126 112 0
1  0
1 172 169 112 0
1  0
1 185 183 122 0
1  0
1 348 344 112 0
1  0
1 361 358 122 0
1  0
1 416 414 165 0
1  0
1 604 600 112 0
1  0
1 617 614 122 0
1  0
1 672 670 165 0
1  0
1 895 894 340 0
1  0
1 190 188 126 0
1  0
1 366 363 126 0
1  0
1 421 419 169 0
1  0
1 622 619 126 0
1  0
1 677 675 169 0
1  0
1 900 899 344 0
1  0
1 128 127 119 0
1  0
1 181 178 119 0
1  0
1 186 183 123 0
1  0
1 357 353 119 0
1  0
1 362 358 123 0
1  0
1 427 425 174 0
1  0
1 613 609 119 0
1  0
1 618 614 123 0
1  0
1 683 681 174 0
1  0
1 906 905 349 0
1  0
1 191 188 127 0
1  0
1 367 363 127 0
1  0
1 432 430 178 0
1  0
1 623 619 127 0
1  0
1 688 686 178 0
1  0
1 911 910 353 0
1  0
1 192 188 128 0
1  0
1 368 363 128 0
1  0
1 438 436 183 0
1  0
1 624 619 128 0
1  0
1 694 692 183 0
1  0
1 917 916 358 0
1  0
1 444 442 188 0
1  0
1 700 698 188 0
1  0
1 923 922 363 0
1  0
1 140 139 133 0
1  0
1 147 146 133 0
1  0
1 151 150 136 0
1  0
1 163 162 133 0
1  0
1 167 166 136 0
1  0
1 176 175 143 0
1  0
1 375 372 133 0
1  0
1 379 376 136 0
1  0
1 388 385 143 0
1  0
1 408 405 159 0
1  0
1 631 628 133 0
1  0
1 635 632 136 0
1  0
1 644 641 143 0
1  0
1 664 661 159 0
1  0
1 930 929 369 0
1  0
1 155 154 139 0
1  0
1 171 170 139 0
1  0
1 180 179 146 0
1  0
1 383 380 139 0
1  0
1 392 389 146 0
1  0
1 412 409 162 0
1  0
1 639 636 139 0
1  0
1 648 645 146 0
1  0
1 668 665 162 0
1  0
1 934 933 372 0
1  0
1 156 154 140 0
1  0
1 172 170 140 0
1  0
1 185 184 150 0
1  0
1 384 380 140 0
1  0
1 397 394 150 0
1  0
1 417 414 166 0
1  0
1 640 636 140 0
1  0
1 653 650 150 0
1  0
1 673 670 166 0
1  0
1 939 938 376 0
1  0
1 190 189 154 0
1  0
1 402 399 154 0
1  0
1 422 419 170 0
1  0
1 658 655 154 0
1  0
1 678 675 170 0
1  0
1 944 943 380 0
1  0
1 156 155 147 0
1  0
1 181 179 147 0
1  0
1 186 184 151 0
1  0
1 393 389 147 0
1  0
1 398 394 151 0
1  0
1 428 425 175 0
1  0
1 649 645 147 0
1  0
1 654 650 151 0
1  0
1 684 681 175 0
1  0
1 950 949 385 0
1  0
1 191 189 155 0
1  0
1 403 399 155 0
1  0
1 433 430 179 0
1  0
1 659 655 155 0
1  0
1 689 686 179 0
1  0
1 955 954 389 0
1  0
1 192 189 156 0
1  0
1 404 399 156 0
1  0
1 439 436 184 0
1  0
1 660 655 156 0
1  0
1 695 692 184 0
1  0
1 961 960 394 0
1  0
1 445 442 189 0
1  0
1 701 698 189 0
1  0
1 967 966 399 0
1  0
1 172 171 163 0
1  0
1 181 180 163 0
1  0
1 186 185 167 0
1  0
1 413 409 163 0
1  0
1 418 414 167 0
1  0
1 429 425 176 0
1  0
1 669 665 163 0
1  0
1 674 670 167 0
1  0
1 685 681 176 0
1  0
1 974 973 405 0
1  0
1 191 190 171 0
1  0
1 423 419 171 0
1  0
1 434 430 180 0
1  0
1 679 675 171 0
1  0
1 690 686 180 0
1  0
1 979 978 409 0
1  0
1 192 190 172 0
1  0
1 424 419 172 0
1  0
1 440 436 185 0
1  0
1 680 675 172 0
1  0
1 696 692 185 0
1  0
1 985 984 414 0
1  0
1 446 442 190 0
1  0
1 702 698 190 0
1  0
1 991 990 419 0
1  0
1 192 191 181 0
1  0
1 435 430 181 0
1  0
1 441 436 186 0
1  0
1 691 686 181 0
1  0
1 697 692 186 0
1  0
1 998 997 425 0
1  0
1 447 442 191 0
1  0
1 703 698 191 0
1  0
1 1004 1003 430 0
1  0
1 448 442 192 0
1  0
1 704 698 192 0
1  0
1 1011 1010 436 0
1  0
1 1018 1017 442 0
1  0
1 200 199 195 0
1  0
1 205 204 195 0
1  0
1 208 207 197 0
1  0
1 217 216 195 0
1  0
1 220 219 197 0
1  0
1 227 226 202 0
1  0
1 245 244 195 0
1  0
1 248 247 197 0
1  0
1 255 254 202 0
1  0
1 271 270 214 0
1  0
1 309 308 195 0
1  0
1 312 311 197 0
1  0
1 319 318 202 0
1  0
1 335 334 214 0
1  0
1 371 370 242 0
1  0
1 709 707 195 0
1  0
1 712 710 197 0
1  0
1 719 717 202 0
1  0
1 735 733 214 0
1  0
1 771 769 242 0
1  0
1 851 849 306 0
1  0
1 211 210 199 0
1  0
1 223 222 199 0
1  0
1 230 229 204 0
1  0
1 251 250 199 0
1  0
1 258 257 204 0
1  0
1 274 273 216 0
1  0
1 315 314 199 0
1  0
1 322 321 204 0
1  0
1 338 337 216 0
1  0
1 374 373 244 0
1  0
1 715 713 199 0
1  0
1 722 720 204 0
1  0
1 738 736 216 0
1  0
1 774 772 244 0
1  0
1 854 852 308 0
1  0
1 212 210 200 0
1  0
1 224 222 200 0
1  0
1 234 233 207 0
1  0
1 252 250 200 0
1  0
1 262 261 207 0
1  0
1 278 277 219 0
1  0
1 316 314 200 0
1  0
1 326 325 207 0
1  0
1 342 341 219 0
1  0
1 378 377 247 0
1  0
1 716 713 200 0
1  0
1 726 724 207 0
1  0
1 742 740 219 0
1  0
1 778 776 247 0
1  0
1 858 856 311 0
1  0
1 238 237 210 0
1  0
1 266 265 210 0
1  0
1 282 281 222 0
1  0
1 330 329 210 0
1  0
1 346 345 222 0
1  0
1 382 381 250 0
1  0
1 730 728 210 0
1  0
1 746 744 222 0
1  0
1 782 780 250 0
1  0
1 862 860 314 0
1  0
1 212 211 205 0
1  0
1 231 229 205 0
1  0
1 235 233 208 0
1  0
1 259 257 205 0
1  0
1 263 261 208 0
1  0
1 287 286 226 0
1  0
1 323 321 205 0
1  0
1 327 325 208 0
1  0
1 351 350 226 0
1  0
1 387 386 254 0
1  0
1 723 720 205 0
1  0
1 727 724 208 0
1  0
1 751 749 226 0
1  0
1 787 785 254 0
1  0
1 867 865 318 0
1  0
1 239 237 211 0
1  0
1 267 265 211 0
1  0
1 291 290 229 0
1  0
1 331 329 211 0
1  0
1 355 354 229 0
1  0
1 391 390 257 0
1  0
1 731 728 211 0
1  0
1 755 753 229 0
1  0
1 791 789 257 0
1  0
1 871 869 321 0
1  0
1 240 237 212 0
1  0
1 268 265 212 0
1  0
1 296 295 233 0
1  0
1 332 329 212 0
1  0
1 360 359 233 0
1  0
1 396 395 261 0
1  0
1 732 728 212 0
1  0
1 760 758 233 0
1  0
1 796 794 261 0
1  0
1 876 874 325 0
1  0
1 301 300 237 0
1  0
1 365 364 237 0
1  0
1 401 400 265 0
1  0
1 765 763 237 0
1  0
1 801 799 265 0
1  0
1 881 879 329 0
1  0
1 224 223 217 0
1  0
1 231 230 217 0
1  0
1 235 234 220 0
1  0
1 275 273 217 0
1  0
1 279 277 220 0
1  0
1 288 286 227 0
1  0
1 339 337 217 0
1  0
1 343 341 220 0
1  0
1 352 350 227 0
1  0
1 407 406 270 0
1  0
1 739 736 217 0
1  0
1 743 740 220 0
1  0
1 752 749 227 0
1  0
1 807 805 270 0
1  0
1 887 885 334 0
1  0
1 239 238 223 0
1  0
1 283 281 223 0
1  0
1 292 290 230 0
1  0
1 347 345 223 0
1  0
1 356 354 230 0
1  0
1 411 410 273 0
1  0
1 747 744 223 0
1  0
1 756 753 230 0
1  0
1 811 809 273 0
1  0
1 891 889 337 0
1  0
1 240 238 224 0
1  0
1 284 281 224 0
1  0
1 297 295 234 0
1  0
1 348 345 224 0
1  0
1 361 359 234 0
1  0
1 416 415 277 0
1  0
1 748 744 224 0
1  0
1 761 758 234 0
1  0
1 816 814 277 0
1  0
1 896 894 341 0
1  0
1 302 300 238 0
1  0
1 366 364 238 0
1  0
1 421 420 281 0
1  0
1 766 763 238 0
1  0
1 821 819 281 0
1  0
1 901 899 345 0
1  0
1 240 239 231 0
1  0
1 293 290 231 0
1  0
1 298 295 235 0
1  0
1 357 354 231 0
1  0
1 362 359 235 0
1  0
1 427 426 286 0
1  0
1 757 753 231 0
1  0
1 762 758 235 0
1  0
1 827 825 286 0
1  0
1 907 905 350 0
1  0
1 303 300 239 0
1  0
1 367 364 239 0
1  0
1 432 431 290 0
1  0
1 767 763 239 0
1  0
1 832 830 290 0
1  0
1 912 910 354 0
1  0
1 304 300 240 0
1  0
1 368 364 240 0
1  0
1 438 437 295 0
1  0
1 768 763 240 0
1  0
1 838 836 295 0
1  0
1 918 916 359 0
1  0
